************************************************************************
file with basedata            : cm254_.bas
initial value random generator: 459302430
************************************************************************
projects                      :  1
jobs (incl. supersource/sink ):  18
horizon                       :  123
RESOURCES
  - renewable                 :  2   R
  - nonrenewable              :  2   N
  - doubly constrained        :  0   D
************************************************************************
PROJECT INFORMATION:
pronr.  #jobs rel.date duedate tardcost  MPM-Time
    1     16      0       25        9       25
************************************************************************
PRECEDENCE RELATIONS:
jobnr.    #modes  #successors   successors
   1        1          3           2   3   4
   2        2          2           5  17
   3        2          3           8  12  16
   4        2          3           5   6   7
   5        2          2          11  15
   6        2          3           8   9  10
   7        2          3           8  12  14
   8        2          1          13
   9        2          2          13  14
  10        2          3          11  15  17
  11        2          1          14
  12        2          1          13
  13        2          2          15  17
  14        2          1          16
  15        2          1          18
  16        2          1          18
  17        2          1          18
  18        1          0        
************************************************************************
REQUESTS/DURATIONS:
jobnr. mode duration  R 1  R 2  N 1  N 2
------------------------------------------------------------------------
  1      1     0       0    0    0    0
  2      1     1       7    5    9    6
         2     9       3    2    9    4
  3      1     2       8    5    3    6
         2     9       8    4    2    2
  4      1     4       8    9    4    9
         2     9       7    9    2    5
  5      1     7       3    8    7    8
         2    10       1    8    4    7
  6      1     2       6    8    6    5
         2     6       1    5    5    1
  7      1     3       7    4    5    7
         2    10       5    2    4    6
  8      1     8       4    6    7    8
         2    10       2    3    6    8
  9      1     5       2    7    6    6
         2    10       2    4    2    5
 10      1     8       3    6    4    8
         2     8       8    5    8    8
 11      1     3       3    6    5    2
         2     7       2    4    3    2
 12      1     3       7    9   10    7
         2     4       6    9    8    6
 13      1     1       4    7    5    9
         2     5       4    3    5    6
 14      1     6       9    5    9    7
         2     7       8    4    3    3
 15      1     9       7    9    5    5
         2    10       3    9    5    5
 16      1     1       6    7    3    2
         2     1       5    7    3    4
 17      1     2       4    6   10    4
         2     8       3    2   10    4
 18      1     0       0    0    0    0
************************************************************************
RESOURCEAVAILABILITIES:
  R 1  R 2  N 1  N 2
   16   23   95   94
************************************************************************
